
Gurobi 11.0.2 (linux64) logging started Tue 03 Dec 2024 09:00:50 AM CET

Set parameter LogFile to value "./res/knapPI_11_20_1000/knapPI_11_20_1000_15/grb_dom.log"
Set parameter Presolve to value 0
Set parameter Aggregate to value 0
Set parameter Heuristics to value 0
Set parameter LPWarmStart to value 0
Set parameter NLPHeur to value 0
Set parameter PreDepRow to value 0
Set parameter PreDual to value 0
Set parameter RINS to value 0
Set parameter Symmetry to value 0
Set parameter NodeLimit to value 1
Set parameter Threads to value 1

Gurobi 11.0.2 (linux64) logging started Tue 03 Dec 2024 09:00:50 AM CET

Set parameter LogFile to value "./res/knapPI_11_20_1000/knapPI_11_20_1000_15/grb_dom.log"
Set parameter NLPHeur to value 0
Set parameter LPWarmStart to value 0
Set parameter PreDepRow to value 0
Set parameter Symmetry to value 0
Set parameter Presolve to value 0
Gurobi Optimizer version 11.0.2 build v11.0.2rc0 (linux64 - "Pop!_OS 20.04 LTS")

CPU model: Intel(R) Core(TM) i7-8650U CPU @ 1.90GHz, instruction set [SSE2|AVX|AVX2]
Thread count: 4 physical cores, 4 logical processors, using up to 1 threads

Optimize a model with 2269 rows, 20 columns and 38629 nonzeros
Model fingerprint: 0xbea191d3
Variable types: 0 continuous, 20 integer (20 binary)
Coefficient statistics:
  Matrix range     [1e+00, 2e+03]
  Objective range  [1e+02, 2e+03]
  Bounds range     [0e+00, 0e+00]
  RHS range        [3e+03, 3e+03]
Variable types: 0 continuous, 20 integer (20 binary)

Root relaxation: objective 2.827416e+03, 5 iterations, 0.01 seconds (0.00 work units)

    Nodes    |    Current Node    |     Objective Bounds      |     Work
 Expl Unexpl |  Obj  Depth IntInf | Incumbent    BestBd   Gap | It/Node Time

     0     0 2827.41624    0    1          - 2827.41624      -     -    0s
     0     0 2827.41624    0    1          - 2827.41624      -     -    0s
     0     0 2827.41624    0    3          - 2827.41624      -     -    0s
     0     0 2827.41624    0    2          - 2827.41624      -     -    0s
     0     0 2827.41624    0    3          - 2827.41624      -     -    0s
     0     0 2827.41624    0    3          - 2827.41624      -     -    0s
     0     0 2827.41624    0    5          - 2827.41624      -     -    0s
     0     0 2827.41624    0    4          - 2827.41624      -     -    0s
     0     0 2827.41624    0    3          - 2827.41624      -     -    0s
     0     0 2827.41624    0    3          - 2827.41624      -     -    0s
     0     2 2827.41624    0    3          - 2827.41624      -     -    0s

Cutting planes:
  Cover: 5
  MIR: 1
  StrongCG: 1

Explored 1 nodes (21 simplex iterations) in 0.47 seconds (0.23 work units)
Thread count was 1 (of 4 available processors)

Solution count 0

Node limit reached
Best objective -, best bound 2.827000000000e+03, gap -

User-callback calls 395, time in user-callback 0.00 sec
opt = false
obj = 2827.4162
nb_dom_cuts = 2268
solved_time = 0.4671
opt_val = 2786.0
